
  17    4
  10   10   10   10

   0   0   0   0   0   6 2 3 4 6 8 9 
  10  10  10  10  10   2 13 5 
   5  10  10  10  10   4 16 13 11 10 
   9  10  10  10  10   3 16 10 7 
   3  10  10  10  10   3 16 11 10 
   6  10  10  10  10   3 16 11 10 
   3  10  10  10  10   3 15 13 12 
   5  10  10  10  10   3 15 13 12 
   1  10  10  10  10   2 13 11 
   2  10  10  10  10   2 15 14 
   9  10  10  10  10   1 12 
   9  10  10  10  10   1 14 
   3  10  10  10  10   1 14 
   1  10  10  10  10   1 17
   6  10  10  10  10   1 17
   6  10  10  10  10   1 17
   0   0   0   0   0   0 
